p cnf 401 1600
c p weight 164 0 0
c p weight -164 1 0
c p weight 165 1.0 0
c p weight -165 1 0
160 -159 157 0
160 -159 158 0
-160 159 157 0
-160 159 158 0
160 159 -157 -158 0
-160 -159 -157 -158 0
161 157 -158 0
161 -157 158 0
-161 157 158 0
-161 -157 -158 0
162 163 -160 0
162 -160 161 0
-162 163 160 0
-162 160 161 0
162 -160 -157 0
-162 160 -157 0
162 -163 160 157 -161 0
-162 -163 -160 157 -161 0
163 -157 161 0
-163 157 161 0
-164 161 0
163 -164 -157 0
-163 -164 157 0
163 164 157 -161 0
-163 164 -157 -161 0
-165 161 0
163 -165 157 0
-163 -165 -157 0
163 165 -157 -161 0
-163 165 157 -161 0
166 -162 163 0
166 -162 161 0
-166 162 163 0
-166 162 161 0
166 162 -163 -161 0
-166 -162 -163 -161 0
167 163 -161 0
167 -163 161 0
-167 163 161 0
-167 -163 -161 0
168 -166 163 0
168 -166 156 0
-168 166 163 0
-168 166 156 0
168 -166 155 -167 0
168 -166 -155 167 0
-168 166 155 -167 0
-168 166 -155 167 0
168 166 -163 155 167 -156 0
168 166 -163 -155 -167 -156 0
-168 -166 -163 155 167 -156 0
-168 -166 -163 -155 -167 -156 0
170 163 -155 0
170 -163 155 0
-170 163 155 0
-170 -163 -155 0
169 167 -156 0
169 -167 156 0
-169 167 156 0
-169 -167 -156 0
171 -168 170 0
171 -168 154 0
-171 168 170 0
-171 168 154 0
171 -168 153 -156 0
171 -168 -153 156 0
-171 168 153 -156 0
-171 168 -153 156 0
171 168 -170 153 156 -154 0
171 168 -170 -153 -156 -154 0
-171 -168 -170 153 156 -154 0
-171 -168 -170 -153 -156 -154 0
173 170 -153 0
173 -170 153 0
-173 170 153 0
-173 -170 -153 0
172 156 -154 0
172 -156 154 0
-172 156 154 0
-172 -156 -154 0
174 -171 173 0
174 -171 152 0
-174 171 173 0
-174 171 152 0
174 -171 151 -154 0
174 -171 -151 154 0
-174 171 151 -154 0
-174 171 -151 154 0
174 171 -173 151 154 -152 0
174 171 -173 -151 -154 -152 0
-174 -171 -173 151 154 -152 0
-174 -171 -173 -151 -154 -152 0
176 173 -151 0
176 -173 151 0
-176 173 151 0
-176 -173 -151 0
175 154 -152 0
175 -154 152 0
-175 154 152 0
-175 -154 -152 0
177 -174 176 0
177 -174 150 0
-177 174 176 0
-177 174 150 0
177 -174 149 -152 0
177 -174 -149 152 0
-177 174 149 -152 0
-177 174 -149 152 0
177 174 -176 149 152 -150 0
177 174 -176 -149 -152 -150 0
-177 -174 -176 149 152 -150 0
-177 -174 -176 -149 -152 -150 0
179 176 -149 0
179 -176 149 0
-179 176 149 0
-179 -176 -149 0
178 152 -150 0
178 -152 150 0
-178 152 150 0
-178 -152 -150 0
180 -177 179 0
180 -177 148 0
-180 177 179 0
-180 177 148 0
180 -177 147 -150 0
180 -177 -147 150 0
-180 177 147 -150 0
-180 177 -147 150 0
180 177 -179 147 150 -148 0
180 177 -179 -147 -150 -148 0
-180 -177 -179 147 150 -148 0
-180 -177 -179 -147 -150 -148 0
182 179 -147 0
182 -179 147 0
-182 179 147 0
-182 -179 -147 0
181 150 -148 0
181 -150 148 0
-181 150 148 0
-181 -150 -148 0
183 -180 182 0
183 -180 146 0
-183 180 182 0
-183 180 146 0
183 -180 145 -148 0
183 -180 -145 148 0
-183 180 145 -148 0
-183 180 -145 148 0
183 180 -182 145 148 -146 0
183 180 -182 -145 -148 -146 0
-183 -180 -182 145 148 -146 0
-183 -180 -182 -145 -148 -146 0
185 182 -145 0
185 -182 145 0
-185 182 145 0
-185 -182 -145 0
184 148 -146 0
184 -148 146 0
-184 148 146 0
-184 -148 -146 0
186 -183 185 0
186 -183 144 0
-186 183 185 0
-186 183 144 0
186 -183 143 -146 0
186 -183 -143 146 0
-186 183 143 -146 0
-186 183 -143 146 0
186 183 -185 143 146 -144 0
186 183 -185 -143 -146 -144 0
-186 -183 -185 143 146 -144 0
-186 -183 -185 -143 -146 -144 0
188 185 -143 0
188 -185 143 0
-188 185 143 0
-188 -185 -143 0
187 146 -144 0
187 -146 144 0
-187 146 144 0
-187 -146 -144 0
189 -186 188 0
189 -186 142 0
-189 186 188 0
-189 186 142 0
189 -186 141 -144 0
189 -186 -141 144 0
-189 186 141 -144 0
-189 186 -141 144 0
189 186 -188 141 144 -142 0
189 186 -188 -141 -144 -142 0
-189 -186 -188 141 144 -142 0
-189 -186 -188 -141 -144 -142 0
191 188 -141 0
191 -188 141 0
-191 188 141 0
-191 -188 -141 0
190 144 -142 0
190 -144 142 0
-190 144 142 0
-190 -144 -142 0
192 -189 191 0
192 -189 140 0
-192 189 191 0
-192 189 140 0
192 -189 139 -142 0
192 -189 -139 142 0
-192 189 139 -142 0
-192 189 -139 142 0
192 189 -191 139 142 -140 0
192 189 -191 -139 -142 -140 0
-192 -189 -191 139 142 -140 0
-192 -189 -191 -139 -142 -140 0
194 191 -139 0
194 -191 139 0
-194 191 139 0
-194 -191 -139 0
193 142 -140 0
193 -142 140 0
-193 142 140 0
-193 -142 -140 0
195 -192 194 0
195 -192 138 0
-195 192 194 0
-195 192 138 0
195 -192 137 -140 0
195 -192 -137 140 0
-195 192 137 -140 0
-195 192 -137 140 0
195 192 -194 137 140 -138 0
195 192 -194 -137 -140 -138 0
-195 -192 -194 137 140 -138 0
-195 -192 -194 -137 -140 -138 0
197 194 -137 0
197 -194 137 0
-197 194 137 0
-197 -194 -137 0
196 140 -138 0
196 -140 138 0
-196 140 138 0
-196 -140 -138 0
198 -195 197 0
198 -195 136 0
-198 195 197 0
-198 195 136 0
198 -195 135 -138 0
198 -195 -135 138 0
-198 195 135 -138 0
-198 195 -135 138 0
198 195 -197 135 138 -136 0
198 195 -197 -135 -138 -136 0
-198 -195 -197 135 138 -136 0
-198 -195 -197 -135 -138 -136 0
200 197 -135 0
200 -197 135 0
-200 197 135 0
-200 -197 -135 0
199 138 -136 0
199 -138 136 0
-199 138 136 0
-199 -138 -136 0
201 -198 200 0
201 -198 134 0
-201 198 200 0
-201 198 134 0
201 -198 133 -136 0
201 -198 -133 136 0
-201 198 133 -136 0
-201 198 -133 136 0
201 198 -200 133 136 -134 0
201 198 -200 -133 -136 -134 0
-201 -198 -200 133 136 -134 0
-201 -198 -200 -133 -136 -134 0
203 200 -133 0
203 -200 133 0
-203 200 133 0
-203 -200 -133 0
202 136 -134 0
202 -136 134 0
-202 136 134 0
-202 -136 -134 0
204 -201 203 0
204 -201 132 0
-204 201 203 0
-204 201 132 0
204 -201 131 -134 0
204 -201 -131 134 0
-204 201 131 -134 0
-204 201 -131 134 0
204 201 -203 131 134 -132 0
204 201 -203 -131 -134 -132 0
-204 -201 -203 131 134 -132 0
-204 -201 -203 -131 -134 -132 0
206 203 -131 0
206 -203 131 0
-206 203 131 0
-206 -203 -131 0
205 134 -132 0
205 -134 132 0
-205 134 132 0
-205 -134 -132 0
207 -204 206 0
207 -204 130 0
-207 204 206 0
-207 204 130 0
207 -204 129 -132 0
207 -204 -129 132 0
-207 204 129 -132 0
-207 204 -129 132 0
207 204 -206 129 132 -130 0
207 204 -206 -129 -132 -130 0
-207 -204 -206 129 132 -130 0
-207 -204 -206 -129 -132 -130 0
209 206 -129 0
209 -206 129 0
-209 206 129 0
-209 -206 -129 0
208 132 -130 0
208 -132 130 0
-208 132 130 0
-208 -132 -130 0
210 -207 209 0
210 -207 128 0
-210 207 209 0
-210 207 128 0
210 -207 127 -130 0
210 -207 -127 130 0
-210 207 127 -130 0
-210 207 -127 130 0
210 207 -209 127 130 -128 0
210 207 -209 -127 -130 -128 0
-210 -207 -209 127 130 -128 0
-210 -207 -209 -127 -130 -128 0
212 209 -127 0
212 -209 127 0
-212 209 127 0
-212 -209 -127 0
211 130 -128 0
211 -130 128 0
-211 130 128 0
-211 -130 -128 0
213 -210 212 0
213 -210 126 0
-213 210 212 0
-213 210 126 0
213 -210 125 -128 0
213 -210 -125 128 0
-213 210 125 -128 0
-213 210 -125 128 0
213 210 -212 125 128 -126 0
213 210 -212 -125 -128 -126 0
-213 -210 -212 125 128 -126 0
-213 -210 -212 -125 -128 -126 0
215 212 -125 0
215 -212 125 0
-215 212 125 0
-215 -212 -125 0
214 128 -126 0
214 -128 126 0
-214 128 126 0
-214 -128 -126 0
216 -213 215 0
216 -213 124 0
-216 213 215 0
-216 213 124 0
216 -213 123 -126 0
216 -213 -123 126 0
-216 213 123 -126 0
-216 213 -123 126 0
216 213 -215 123 126 -124 0
216 213 -215 -123 -126 -124 0
-216 -213 -215 123 126 -124 0
-216 -213 -215 -123 -126 -124 0
218 215 -123 0
218 -215 123 0
-218 215 123 0
-218 -215 -123 0
217 126 -124 0
217 -126 124 0
-217 126 124 0
-217 -126 -124 0
219 -216 218 0
219 -216 122 0
-219 216 218 0
-219 216 122 0
219 -216 121 -124 0
219 -216 -121 124 0
-219 216 121 -124 0
-219 216 -121 124 0
219 216 -218 121 124 -122 0
219 216 -218 -121 -124 -122 0
-219 -216 -218 121 124 -122 0
-219 -216 -218 -121 -124 -122 0
221 218 -121 0
221 -218 121 0
-221 218 121 0
-221 -218 -121 0
220 124 -122 0
220 -124 122 0
-220 124 122 0
-220 -124 -122 0
222 -219 221 0
222 -219 120 0
-222 219 221 0
-222 219 120 0
222 -219 119 -122 0
222 -219 -119 122 0
-222 219 119 -122 0
-222 219 -119 122 0
222 219 -221 119 122 -120 0
222 219 -221 -119 -122 -120 0
-222 -219 -221 119 122 -120 0
-222 -219 -221 -119 -122 -120 0
224 221 -119 0
224 -221 119 0
-224 221 119 0
-224 -221 -119 0
223 122 -120 0
223 -122 120 0
-223 122 120 0
-223 -122 -120 0
225 -222 224 0
225 -222 118 0
-225 222 224 0
-225 222 118 0
225 -222 117 -120 0
225 -222 -117 120 0
-225 222 117 -120 0
-225 222 -117 120 0
225 222 -224 117 120 -118 0
225 222 -224 -117 -120 -118 0
-225 -222 -224 117 120 -118 0
-225 -222 -224 -117 -120 -118 0
227 224 -117 0
227 -224 117 0
-227 224 117 0
-227 -224 -117 0
226 120 -118 0
226 -120 118 0
-226 120 118 0
-226 -120 -118 0
228 -225 227 0
228 -225 116 0
-228 225 227 0
-228 225 116 0
228 -225 115 -118 0
228 -225 -115 118 0
-228 225 115 -118 0
-228 225 -115 118 0
228 225 -227 115 118 -116 0
228 225 -227 -115 -118 -116 0
-228 -225 -227 115 118 -116 0
-228 -225 -227 -115 -118 -116 0
230 227 -115 0
230 -227 115 0
-230 227 115 0
-230 -227 -115 0
229 118 -116 0
229 -118 116 0
-229 118 116 0
-229 -118 -116 0
231 -228 230 0
231 -228 114 0
-231 228 230 0
-231 228 114 0
231 -228 113 -116 0
231 -228 -113 116 0
-231 228 113 -116 0
-231 228 -113 116 0
231 228 -230 113 116 -114 0
231 228 -230 -113 -116 -114 0
-231 -228 -230 113 116 -114 0
-231 -228 -230 -113 -116 -114 0
233 230 -113 0
233 -230 113 0
-233 230 113 0
-233 -230 -113 0
232 116 -114 0
232 -116 114 0
-232 116 114 0
-232 -116 -114 0
234 -231 233 0
234 -231 112 0
-234 231 233 0
-234 231 112 0
234 -231 111 -114 0
234 -231 -111 114 0
-234 231 111 -114 0
-234 231 -111 114 0
234 231 -233 111 114 -112 0
234 231 -233 -111 -114 -112 0
-234 -231 -233 111 114 -112 0
-234 -231 -233 -111 -114 -112 0
236 233 -111 0
236 -233 111 0
-236 233 111 0
-236 -233 -111 0
235 114 -112 0
235 -114 112 0
-235 114 112 0
-235 -114 -112 0
237 -234 236 0
237 -234 110 0
-237 234 236 0
-237 234 110 0
237 -234 109 -112 0
237 -234 -109 112 0
-237 234 109 -112 0
-237 234 -109 112 0
237 234 -236 109 112 -110 0
237 234 -236 -109 -112 -110 0
-237 -234 -236 109 112 -110 0
-237 -234 -236 -109 -112 -110 0
239 236 -109 0
239 -236 109 0
-239 236 109 0
-239 -236 -109 0
238 112 -110 0
238 -112 110 0
-238 112 110 0
-238 -112 -110 0
240 -237 239 0
240 -237 108 0
-240 237 239 0
-240 237 108 0
240 -237 107 -110 0
240 -237 -107 110 0
-240 237 107 -110 0
-240 237 -107 110 0
240 237 -239 107 110 -108 0
240 237 -239 -107 -110 -108 0
-240 -237 -239 107 110 -108 0
-240 -237 -239 -107 -110 -108 0
242 239 -107 0
242 -239 107 0
-242 239 107 0
-242 -239 -107 0
241 110 -108 0
241 -110 108 0
-241 110 108 0
-241 -110 -108 0
243 -240 242 0
243 -240 106 0
-243 240 242 0
-243 240 106 0
243 -240 105 -108 0
243 -240 -105 108 0
-243 240 105 -108 0
-243 240 -105 108 0
243 240 -242 105 108 -106 0
243 240 -242 -105 -108 -106 0
-243 -240 -242 105 108 -106 0
-243 -240 -242 -105 -108 -106 0
245 242 -105 0
245 -242 105 0
-245 242 105 0
-245 -242 -105 0
244 108 -106 0
244 -108 106 0
-244 108 106 0
-244 -108 -106 0
246 -243 245 0
246 -243 104 0
-246 243 245 0
-246 243 104 0
246 -243 103 -106 0
246 -243 -103 106 0
-246 243 103 -106 0
-246 243 -103 106 0
246 243 -245 103 106 -104 0
246 243 -245 -103 -106 -104 0
-246 -243 -245 103 106 -104 0
-246 -243 -245 -103 -106 -104 0
248 245 -103 0
248 -245 103 0
-248 245 103 0
-248 -245 -103 0
247 106 -104 0
247 -106 104 0
-247 106 104 0
-247 -106 -104 0
249 -246 248 0
249 -246 102 0
-249 246 248 0
-249 246 102 0
249 -246 101 -104 0
249 -246 -101 104 0
-249 246 101 -104 0
-249 246 -101 104 0
249 246 -248 101 104 -102 0
249 246 -248 -101 -104 -102 0
-249 -246 -248 101 104 -102 0
-249 -246 -248 -101 -104 -102 0
251 248 -101 0
251 -248 101 0
-251 248 101 0
-251 -248 -101 0
250 104 -102 0
250 -104 102 0
-250 104 102 0
-250 -104 -102 0
252 -249 251 0
252 -249 100 0
-252 249 251 0
-252 249 100 0
252 -249 99 -102 0
252 -249 -99 102 0
-252 249 99 -102 0
-252 249 -99 102 0
252 249 -251 99 102 -100 0
252 249 -251 -99 -102 -100 0
-252 -249 -251 99 102 -100 0
-252 -249 -251 -99 -102 -100 0
254 251 -99 0
254 -251 99 0
-254 251 99 0
-254 -251 -99 0
253 102 -100 0
253 -102 100 0
-253 102 100 0
-253 -102 -100 0
255 -252 254 0
255 -252 98 0
-255 252 254 0
-255 252 98 0
255 -252 97 -100 0
255 -252 -97 100 0
-255 252 97 -100 0
-255 252 -97 100 0
255 252 -254 97 100 -98 0
255 252 -254 -97 -100 -98 0
-255 -252 -254 97 100 -98 0
-255 -252 -254 -97 -100 -98 0
257 254 -97 0
257 -254 97 0
-257 254 97 0
-257 -254 -97 0
256 100 -98 0
256 -100 98 0
-256 100 98 0
-256 -100 -98 0
258 -255 257 0
258 -255 96 0
-258 255 257 0
-258 255 96 0
258 -255 95 -98 0
258 -255 -95 98 0
-258 255 95 -98 0
-258 255 -95 98 0
258 255 -257 95 98 -96 0
258 255 -257 -95 -98 -96 0
-258 -255 -257 95 98 -96 0
-258 -255 -257 -95 -98 -96 0
260 257 -95 0
260 -257 95 0
-260 257 95 0
-260 -257 -95 0
259 98 -96 0
259 -98 96 0
-259 98 96 0
-259 -98 -96 0
261 -258 260 0
261 -258 94 0
-261 258 260 0
-261 258 94 0
261 -258 93 -96 0
261 -258 -93 96 0
-261 258 93 -96 0
-261 258 -93 96 0
261 258 -260 93 96 -94 0
261 258 -260 -93 -96 -94 0
-261 -258 -260 93 96 -94 0
-261 -258 -260 -93 -96 -94 0
263 260 -93 0
263 -260 93 0
-263 260 93 0
-263 -260 -93 0
262 96 -94 0
262 -96 94 0
-262 96 94 0
-262 -96 -94 0
264 -261 263 0
264 -261 92 0
-264 261 263 0
-264 261 92 0
264 -261 91 -94 0
264 -261 -91 94 0
-264 261 91 -94 0
-264 261 -91 94 0
264 261 -263 91 94 -92 0
264 261 -263 -91 -94 -92 0
-264 -261 -263 91 94 -92 0
-264 -261 -263 -91 -94 -92 0
266 263 -91 0
266 -263 91 0
-266 263 91 0
-266 -263 -91 0
265 94 -92 0
265 -94 92 0
-265 94 92 0
-265 -94 -92 0
267 -264 266 0
267 -264 90 0
-267 264 266 0
-267 264 90 0
267 -264 89 -92 0
267 -264 -89 92 0
-267 264 89 -92 0
-267 264 -89 92 0
267 264 -266 89 92 -90 0
267 264 -266 -89 -92 -90 0
-267 -264 -266 89 92 -90 0
-267 -264 -266 -89 -92 -90 0
269 266 -89 0
269 -266 89 0
-269 266 89 0
-269 -266 -89 0
268 92 -90 0
268 -92 90 0
-268 92 90 0
-268 -92 -90 0
270 -267 269 0
270 -267 88 0
-270 267 269 0
-270 267 88 0
270 -267 87 -90 0
270 -267 -87 90 0
-270 267 87 -90 0
-270 267 -87 90 0
270 267 -269 87 90 -88 0
270 267 -269 -87 -90 -88 0
-270 -267 -269 87 90 -88 0
-270 -267 -269 -87 -90 -88 0
272 269 -87 0
272 -269 87 0
-272 269 87 0
-272 -269 -87 0
271 90 -88 0
271 -90 88 0
-271 90 88 0
-271 -90 -88 0
273 -270 272 0
273 -270 86 0
-273 270 272 0
-273 270 86 0
273 -270 85 -88 0
273 -270 -85 88 0
-273 270 85 -88 0
-273 270 -85 88 0
273 270 -272 85 88 -86 0
273 270 -272 -85 -88 -86 0
-273 -270 -272 85 88 -86 0
-273 -270 -272 -85 -88 -86 0
275 272 -85 0
275 -272 85 0
-275 272 85 0
-275 -272 -85 0
274 88 -86 0
274 -88 86 0
-274 88 86 0
-274 -88 -86 0
276 -273 275 0
276 -273 84 0
-276 273 275 0
-276 273 84 0
276 -273 83 -86 0
276 -273 -83 86 0
-276 273 83 -86 0
-276 273 -83 86 0
276 273 -275 83 86 -84 0
276 273 -275 -83 -86 -84 0
-276 -273 -275 83 86 -84 0
-276 -273 -275 -83 -86 -84 0
278 275 -83 0
278 -275 83 0
-278 275 83 0
-278 -275 -83 0
277 86 -84 0
277 -86 84 0
-277 86 84 0
-277 -86 -84 0
279 -276 278 0
279 -276 82 0
-279 276 278 0
-279 276 82 0
279 -276 81 -84 0
279 -276 -81 84 0
-279 276 81 -84 0
-279 276 -81 84 0
279 276 -278 81 84 -82 0
279 276 -278 -81 -84 -82 0
-279 -276 -278 81 84 -82 0
-279 -276 -278 -81 -84 -82 0
281 278 -81 0
281 -278 81 0
-281 278 81 0
-281 -278 -81 0
280 84 -82 0
280 -84 82 0
-280 84 82 0
-280 -84 -82 0
282 -279 281 0
282 -279 80 0
-282 279 281 0
-282 279 80 0
282 -279 79 -82 0
282 -279 -79 82 0
-282 279 79 -82 0
-282 279 -79 82 0
282 279 -281 79 82 -80 0
282 279 -281 -79 -82 -80 0
-282 -279 -281 79 82 -80 0
-282 -279 -281 -79 -82 -80 0
284 281 -79 0
284 -281 79 0
-284 281 79 0
-284 -281 -79 0
283 82 -80 0
283 -82 80 0
-283 82 80 0
-283 -82 -80 0
285 -282 284 0
285 -282 78 0
-285 282 284 0
-285 282 78 0
285 -282 77 -80 0
285 -282 -77 80 0
-285 282 77 -80 0
-285 282 -77 80 0
285 282 -284 77 80 -78 0
285 282 -284 -77 -80 -78 0
-285 -282 -284 77 80 -78 0
-285 -282 -284 -77 -80 -78 0
287 284 -77 0
287 -284 77 0
-287 284 77 0
-287 -284 -77 0
286 80 -78 0
286 -80 78 0
-286 80 78 0
-286 -80 -78 0
288 -285 287 0
288 -285 76 0
-288 285 287 0
-288 285 76 0
288 -285 75 -78 0
288 -285 -75 78 0
-288 285 75 -78 0
-288 285 -75 78 0
288 285 -287 75 78 -76 0
288 285 -287 -75 -78 -76 0
-288 -285 -287 75 78 -76 0
-288 -285 -287 -75 -78 -76 0
290 287 -75 0
290 -287 75 0
-290 287 75 0
-290 -287 -75 0
289 78 -76 0
289 -78 76 0
-289 78 76 0
-289 -78 -76 0
291 -288 290 0
291 -288 74 0
-291 288 290 0
-291 288 74 0
291 -288 73 -76 0
291 -288 -73 76 0
-291 288 73 -76 0
-291 288 -73 76 0
291 288 -290 73 76 -74 0
291 288 -290 -73 -76 -74 0
-291 -288 -290 73 76 -74 0
-291 -288 -290 -73 -76 -74 0
293 290 -73 0
293 -290 73 0
-293 290 73 0
-293 -290 -73 0
292 76 -74 0
292 -76 74 0
-292 76 74 0
-292 -76 -74 0
294 -291 293 0
294 -291 72 0
-294 291 293 0
-294 291 72 0
294 -291 71 -74 0
294 -291 -71 74 0
-294 291 71 -74 0
-294 291 -71 74 0
294 291 -293 71 74 -72 0
294 291 -293 -71 -74 -72 0
-294 -291 -293 71 74 -72 0
-294 -291 -293 -71 -74 -72 0
296 293 -71 0
296 -293 71 0
-296 293 71 0
-296 -293 -71 0
295 74 -72 0
295 -74 72 0
-295 74 72 0
-295 -74 -72 0
297 -294 296 0
297 -294 70 0
-297 294 296 0
-297 294 70 0
297 -294 69 -72 0
297 -294 -69 72 0
-297 294 69 -72 0
-297 294 -69 72 0
297 294 -296 69 72 -70 0
297 294 -296 -69 -72 -70 0
-297 -294 -296 69 72 -70 0
-297 -294 -296 -69 -72 -70 0
299 296 -69 0
299 -296 69 0
-299 296 69 0
-299 -296 -69 0
298 72 -70 0
298 -72 70 0
-298 72 70 0
-298 -72 -70 0
300 -297 299 0
300 -297 68 0
-300 297 299 0
-300 297 68 0
300 -297 67 -70 0
300 -297 -67 70 0
-300 297 67 -70 0
-300 297 -67 70 0
300 297 -299 67 70 -68 0
300 297 -299 -67 -70 -68 0
-300 -297 -299 67 70 -68 0
-300 -297 -299 -67 -70 -68 0
302 299 -67 0
302 -299 67 0
-302 299 67 0
-302 -299 -67 0
301 70 -68 0
301 -70 68 0
-301 70 68 0
-301 -70 -68 0
303 -300 302 0
303 -300 66 0
-303 300 302 0
-303 300 66 0
303 -300 65 -68 0
303 -300 -65 68 0
-303 300 65 -68 0
-303 300 -65 68 0
303 300 -302 65 68 -66 0
303 300 -302 -65 -68 -66 0
-303 -300 -302 65 68 -66 0
-303 -300 -302 -65 -68 -66 0
305 302 -65 0
305 -302 65 0
-305 302 65 0
-305 -302 -65 0
304 68 -66 0
304 -68 66 0
-304 68 66 0
-304 -68 -66 0
306 -303 305 0
306 -303 64 0
-306 303 305 0
-306 303 64 0
306 -303 63 -66 0
306 -303 -63 66 0
-306 303 63 -66 0
-306 303 -63 66 0
306 303 -305 63 66 -64 0
306 303 -305 -63 -66 -64 0
-306 -303 -305 63 66 -64 0
-306 -303 -305 -63 -66 -64 0
308 305 -63 0
308 -305 63 0
-308 305 63 0
-308 -305 -63 0
307 66 -64 0
307 -66 64 0
-307 66 64 0
-307 -66 -64 0
309 -306 308 0
309 -306 62 0
-309 306 308 0
-309 306 62 0
309 -306 61 -64 0
309 -306 -61 64 0
-309 306 61 -64 0
-309 306 -61 64 0
309 306 -308 61 64 -62 0
309 306 -308 -61 -64 -62 0
-309 -306 -308 61 64 -62 0
-309 -306 -308 -61 -64 -62 0
311 308 -61 0
311 -308 61 0
-311 308 61 0
-311 -308 -61 0
310 64 -62 0
310 -64 62 0
-310 64 62 0
-310 -64 -62 0
312 -309 311 0
312 -309 60 0
-312 309 311 0
-312 309 60 0
312 -309 59 -62 0
312 -309 -59 62 0
-312 309 59 -62 0
-312 309 -59 62 0
312 309 -311 59 62 -60 0
312 309 -311 -59 -62 -60 0
-312 -309 -311 59 62 -60 0
-312 -309 -311 -59 -62 -60 0
314 311 -59 0
314 -311 59 0
-314 311 59 0
-314 -311 -59 0
313 62 -60 0
313 -62 60 0
-313 62 60 0
-313 -62 -60 0
315 -312 314 0
315 -312 58 0
-315 312 314 0
-315 312 58 0
315 -312 57 -60 0
315 -312 -57 60 0
-315 312 57 -60 0
-315 312 -57 60 0
315 312 -314 57 60 -58 0
315 312 -314 -57 -60 -58 0
-315 -312 -314 57 60 -58 0
-315 -312 -314 -57 -60 -58 0
317 314 -57 0
317 -314 57 0
-317 314 57 0
-317 -314 -57 0
316 60 -58 0
316 -60 58 0
-316 60 58 0
-316 -60 -58 0
318 -315 317 0
318 -315 56 0
-318 315 317 0
-318 315 56 0
318 -315 55 -58 0
318 -315 -55 58 0
-318 315 55 -58 0
-318 315 -55 58 0
318 315 -317 55 58 -56 0
318 315 -317 -55 -58 -56 0
-318 -315 -317 55 58 -56 0
-318 -315 -317 -55 -58 -56 0
320 317 -55 0
320 -317 55 0
-320 317 55 0
-320 -317 -55 0
319 58 -56 0
319 -58 56 0
-319 58 56 0
-319 -58 -56 0
321 -318 320 0
321 -318 54 0
-321 318 320 0
-321 318 54 0
321 -318 53 -56 0
321 -318 -53 56 0
-321 318 53 -56 0
-321 318 -53 56 0
321 318 -320 53 56 -54 0
321 318 -320 -53 -56 -54 0
-321 -318 -320 53 56 -54 0
-321 -318 -320 -53 -56 -54 0
323 320 -53 0
323 -320 53 0
-323 320 53 0
-323 -320 -53 0
322 56 -54 0
322 -56 54 0
-322 56 54 0
-322 -56 -54 0
324 -321 323 0
324 -321 52 0
-324 321 323 0
-324 321 52 0
324 -321 51 -54 0
324 -321 -51 54 0
-324 321 51 -54 0
-324 321 -51 54 0
324 321 -323 51 54 -52 0
324 321 -323 -51 -54 -52 0
-324 -321 -323 51 54 -52 0
-324 -321 -323 -51 -54 -52 0
326 323 -51 0
326 -323 51 0
-326 323 51 0
-326 -323 -51 0
325 54 -52 0
325 -54 52 0
-325 54 52 0
-325 -54 -52 0
327 -324 326 0
327 -324 50 0
-327 324 326 0
-327 324 50 0
327 -324 49 -52 0
327 -324 -49 52 0
-327 324 49 -52 0
-327 324 -49 52 0
327 324 -326 49 52 -50 0
327 324 -326 -49 -52 -50 0
-327 -324 -326 49 52 -50 0
-327 -324 -326 -49 -52 -50 0
329 326 -49 0
329 -326 49 0
-329 326 49 0
-329 -326 -49 0
328 52 -50 0
328 -52 50 0
-328 52 50 0
-328 -52 -50 0
330 -327 329 0
330 -327 48 0
-330 327 329 0
-330 327 48 0
330 -327 47 -50 0
330 -327 -47 50 0
-330 327 47 -50 0
-330 327 -47 50 0
330 327 -329 47 50 -48 0
330 327 -329 -47 -50 -48 0
-330 -327 -329 47 50 -48 0
-330 -327 -329 -47 -50 -48 0
332 329 -47 0
332 -329 47 0
-332 329 47 0
-332 -329 -47 0
331 50 -48 0
331 -50 48 0
-331 50 48 0
-331 -50 -48 0
333 -330 332 0
333 -330 46 0
-333 330 332 0
-333 330 46 0
333 -330 45 -48 0
333 -330 -45 48 0
-333 330 45 -48 0
-333 330 -45 48 0
333 330 -332 45 48 -46 0
333 330 -332 -45 -48 -46 0
-333 -330 -332 45 48 -46 0
-333 -330 -332 -45 -48 -46 0
335 332 -45 0
335 -332 45 0
-335 332 45 0
-335 -332 -45 0
334 48 -46 0
334 -48 46 0
-334 48 46 0
-334 -48 -46 0
336 -333 335 0
336 -333 44 0
-336 333 335 0
-336 333 44 0
336 -333 43 -46 0
336 -333 -43 46 0
-336 333 43 -46 0
-336 333 -43 46 0
336 333 -335 43 46 -44 0
336 333 -335 -43 -46 -44 0
-336 -333 -335 43 46 -44 0
-336 -333 -335 -43 -46 -44 0
338 335 -43 0
338 -335 43 0
-338 335 43 0
-338 -335 -43 0
337 46 -44 0
337 -46 44 0
-337 46 44 0
-337 -46 -44 0
339 -336 338 0
339 -336 42 0
-339 336 338 0
-339 336 42 0
339 -336 41 -44 0
339 -336 -41 44 0
-339 336 41 -44 0
-339 336 -41 44 0
339 336 -338 41 44 -42 0
339 336 -338 -41 -44 -42 0
-339 -336 -338 41 44 -42 0
-339 -336 -338 -41 -44 -42 0
341 338 -41 0
341 -338 41 0
-341 338 41 0
-341 -338 -41 0
340 44 -42 0
340 -44 42 0
-340 44 42 0
-340 -44 -42 0
342 -339 341 0
342 -339 40 0
-342 339 341 0
-342 339 40 0
342 -339 39 -42 0
342 -339 -39 42 0
-342 339 39 -42 0
-342 339 -39 42 0
342 339 -341 39 42 -40 0
342 339 -341 -39 -42 -40 0
-342 -339 -341 39 42 -40 0
-342 -339 -341 -39 -42 -40 0
344 341 -39 0
344 -341 39 0
-344 341 39 0
-344 -341 -39 0
343 42 -40 0
343 -42 40 0
-343 42 40 0
-343 -42 -40 0
345 -342 344 0
345 -342 38 0
-345 342 344 0
-345 342 38 0
345 -342 37 -40 0
345 -342 -37 40 0
-345 342 37 -40 0
-345 342 -37 40 0
345 342 -344 37 40 -38 0
345 342 -344 -37 -40 -38 0
-345 -342 -344 37 40 -38 0
-345 -342 -344 -37 -40 -38 0
347 344 -37 0
347 -344 37 0
-347 344 37 0
-347 -344 -37 0
346 40 -38 0
346 -40 38 0
-346 40 38 0
-346 -40 -38 0
348 -345 347 0
348 -345 36 0
-348 345 347 0
-348 345 36 0
348 -345 35 -38 0
348 -345 -35 38 0
-348 345 35 -38 0
-348 345 -35 38 0
348 345 -347 35 38 -36 0
348 345 -347 -35 -38 -36 0
-348 -345 -347 35 38 -36 0
-348 -345 -347 -35 -38 -36 0
350 347 -35 0
350 -347 35 0
-350 347 35 0
-350 -347 -35 0
349 38 -36 0
349 -38 36 0
-349 38 36 0
-349 -38 -36 0
351 -348 350 0
351 -348 34 0
-351 348 350 0
-351 348 34 0
351 -348 33 -36 0
351 -348 -33 36 0
-351 348 33 -36 0
-351 348 -33 36 0
351 348 -350 33 36 -34 0
351 348 -350 -33 -36 -34 0
-351 -348 -350 33 36 -34 0
-351 -348 -350 -33 -36 -34 0
353 350 -33 0
353 -350 33 0
-353 350 33 0
-353 -350 -33 0
352 36 -34 0
352 -36 34 0
-352 36 34 0
-352 -36 -34 0
354 -351 353 0
354 -351 32 0
-354 351 353 0
-354 351 32 0
354 -351 31 -34 0
354 -351 -31 34 0
-354 351 31 -34 0
-354 351 -31 34 0
354 351 -353 31 34 -32 0
354 351 -353 -31 -34 -32 0
-354 -351 -353 31 34 -32 0
-354 -351 -353 -31 -34 -32 0
356 353 -31 0
356 -353 31 0
-356 353 31 0
-356 -353 -31 0
355 34 -32 0
355 -34 32 0
-355 34 32 0
-355 -34 -32 0
357 -354 356 0
357 -354 30 0
-357 354 356 0
-357 354 30 0
357 -354 29 -32 0
357 -354 -29 32 0
-357 354 29 -32 0
-357 354 -29 32 0
357 354 -356 29 32 -30 0
357 354 -356 -29 -32 -30 0
-357 -354 -356 29 32 -30 0
-357 -354 -356 -29 -32 -30 0
359 356 -29 0
359 -356 29 0
-359 356 29 0
-359 -356 -29 0
358 32 -30 0
358 -32 30 0
-358 32 30 0
-358 -32 -30 0
360 -357 359 0
360 -357 28 0
-360 357 359 0
-360 357 28 0
360 -357 27 -30 0
360 -357 -27 30 0
-360 357 27 -30 0
-360 357 -27 30 0
360 357 -359 27 30 -28 0
360 357 -359 -27 -30 -28 0
-360 -357 -359 27 30 -28 0
-360 -357 -359 -27 -30 -28 0
362 359 -27 0
362 -359 27 0
-362 359 27 0
-362 -359 -27 0
361 30 -28 0
361 -30 28 0
-361 30 28 0
-361 -30 -28 0
363 -360 362 0
363 -360 26 0
-363 360 362 0
-363 360 26 0
363 -360 25 -28 0
363 -360 -25 28 0
-363 360 25 -28 0
-363 360 -25 28 0
363 360 -362 25 28 -26 0
363 360 -362 -25 -28 -26 0
-363 -360 -362 25 28 -26 0
-363 -360 -362 -25 -28 -26 0
365 362 -25 0
365 -362 25 0
-365 362 25 0
-365 -362 -25 0
364 28 -26 0
364 -28 26 0
-364 28 26 0
-364 -28 -26 0
366 -363 365 0
366 -363 24 0
-366 363 365 0
-366 363 24 0
366 -363 23 -26 0
366 -363 -23 26 0
-366 363 23 -26 0
-366 363 -23 26 0
366 363 -365 23 26 -24 0
366 363 -365 -23 -26 -24 0
-366 -363 -365 23 26 -24 0
-366 -363 -365 -23 -26 -24 0
368 365 -23 0
368 -365 23 0
-368 365 23 0
-368 -365 -23 0
367 26 -24 0
367 -26 24 0
-367 26 24 0
-367 -26 -24 0
369 -366 368 0
369 -366 22 0
-369 366 368 0
-369 366 22 0
369 -366 21 -24 0
369 -366 -21 24 0
-369 366 21 -24 0
-369 366 -21 24 0
369 366 -368 21 24 -22 0
369 366 -368 -21 -24 -22 0
-369 -366 -368 21 24 -22 0
-369 -366 -368 -21 -24 -22 0
371 368 -21 0
371 -368 21 0
-371 368 21 0
-371 -368 -21 0
370 24 -22 0
370 -24 22 0
-370 24 22 0
-370 -24 -22 0
372 -369 371 0
372 -369 20 0
-372 369 371 0
-372 369 20 0
372 -369 19 -22 0
372 -369 -19 22 0
-372 369 19 -22 0
-372 369 -19 22 0
372 369 -371 19 22 -20 0
372 369 -371 -19 -22 -20 0
-372 -369 -371 19 22 -20 0
-372 -369 -371 -19 -22 -20 0
374 371 -19 0
374 -371 19 0
-374 371 19 0
-374 -371 -19 0
373 22 -20 0
373 -22 20 0
-373 22 20 0
-373 -22 -20 0
375 -372 374 0
375 -372 18 0
-375 372 374 0
-375 372 18 0
375 -372 17 -20 0
375 -372 -17 20 0
-375 372 17 -20 0
-375 372 -17 20 0
375 372 -374 17 20 -18 0
375 372 -374 -17 -20 -18 0
-375 -372 -374 17 20 -18 0
-375 -372 -374 -17 -20 -18 0
377 374 -17 0
377 -374 17 0
-377 374 17 0
-377 -374 -17 0
376 20 -18 0
376 -20 18 0
-376 20 18 0
-376 -20 -18 0
378 -375 377 0
378 -375 16 0
-378 375 377 0
-378 375 16 0
378 -375 15 -18 0
378 -375 -15 18 0
-378 375 15 -18 0
-378 375 -15 18 0
378 375 -377 15 18 -16 0
378 375 -377 -15 -18 -16 0
-378 -375 -377 15 18 -16 0
-378 -375 -377 -15 -18 -16 0
380 377 -15 0
380 -377 15 0
-380 377 15 0
-380 -377 -15 0
379 18 -16 0
379 -18 16 0
-379 18 16 0
-379 -18 -16 0
381 -378 380 0
381 -378 14 0
-381 378 380 0
-381 378 14 0
381 -378 13 -16 0
381 -378 -13 16 0
-381 378 13 -16 0
-381 378 -13 16 0
381 378 -380 13 16 -14 0
381 378 -380 -13 -16 -14 0
-381 -378 -380 13 16 -14 0
-381 -378 -380 -13 -16 -14 0
383 380 -13 0
383 -380 13 0
-383 380 13 0
-383 -380 -13 0
382 16 -14 0
382 -16 14 0
-382 16 14 0
-382 -16 -14 0
384 -381 383 0
384 -381 12 0
-384 381 383 0
-384 381 12 0
384 -381 11 -14 0
384 -381 -11 14 0
-384 381 11 -14 0
-384 381 -11 14 0
384 381 -383 11 14 -12 0
384 381 -383 -11 -14 -12 0
-384 -381 -383 11 14 -12 0
-384 -381 -383 -11 -14 -12 0
386 383 -11 0
386 -383 11 0
-386 383 11 0
-386 -383 -11 0
385 14 -12 0
385 -14 12 0
-385 14 12 0
-385 -14 -12 0
387 -384 386 0
387 -384 10 0
-387 384 386 0
-387 384 10 0
387 -384 9 -12 0
387 -384 -9 12 0
-387 384 9 -12 0
-387 384 -9 12 0
387 384 -386 9 12 -10 0
387 384 -386 -9 -12 -10 0
-387 -384 -386 9 12 -10 0
-387 -384 -386 -9 -12 -10 0
389 386 -9 0
389 -386 9 0
-389 386 9 0
-389 -386 -9 0
388 12 -10 0
388 -12 10 0
-388 12 10 0
-388 -12 -10 0
390 -387 389 0
390 -387 8 0
-390 387 389 0
-390 387 8 0
390 -387 7 -10 0
390 -387 -7 10 0
-390 387 7 -10 0
-390 387 -7 10 0
390 387 -389 7 10 -8 0
390 387 -389 -7 -10 -8 0
-390 -387 -389 7 10 -8 0
-390 -387 -389 -7 -10 -8 0
392 389 -7 0
392 -389 7 0
-392 389 7 0
-392 -389 -7 0
391 10 -8 0
391 -10 8 0
-391 10 8 0
-391 -10 -8 0
393 -390 392 0
393 -390 6 0
-393 390 392 0
-393 390 6 0
393 -390 5 -8 0
393 -390 -5 8 0
-393 390 5 -8 0
-393 390 -5 8 0
393 390 -392 5 8 -6 0
393 390 -392 -5 -8 -6 0
-393 -390 -392 5 8 -6 0
-393 -390 -392 -5 -8 -6 0
395 392 -5 0
395 -392 5 0
-395 392 5 0
-395 -392 -5 0
394 8 -6 0
394 -8 6 0
-394 8 6 0
-394 -8 -6 0
396 -393 395 0
396 -393 4 0
-396 393 395 0
-396 393 4 0
396 -393 3 -6 0
396 -393 -3 6 0
-396 393 3 -6 0
-396 393 -3 6 0
396 393 -395 3 6 -4 0
396 393 -395 -3 -6 -4 0
-396 -393 -395 3 6 -4 0
-396 -393 -395 -3 -6 -4 0
398 395 -3 0
398 -395 3 0
-398 395 3 0
-398 -395 -3 0
397 6 -4 0
397 -6 4 0
-397 6 4 0
-397 -6 -4 0
399 -396 398 0
399 -396 2 0
-399 396 398 0
-399 396 2 0
399 -396 1 -4 0
399 -396 -1 4 0
-399 396 1 -4 0
-399 396 -1 4 0
399 396 -398 1 4 -2 0
399 396 -398 -1 -4 -2 0
-399 -396 -398 1 4 -2 0
-399 -396 -398 -1 -4 -2 0
401 398 -1 0
401 -398 1 0
-401 398 1 0
-401 -398 -1 0
400 4 -2 0
400 -4 2 0
-400 4 2 0
-400 -4 -2 0
